
#(C) 2020 by FIZ Karlsruhe - Leibniz Institute for Information Infrastructure.  All rights reserved.
data_15416-ICSD
_database_code_ICSD 15416
_audit_creation_date 1980-01-01
_chemical_name_common 'Potassium bis(biuret)cuprate tetrahydrate'
_chemical_formula_structural 'K2 Cu (N H C O N H C O N H)2 (H2 O)4'
_chemical_formula_sum 'C4 H14 Cu1 K2 N6 O8'
_exptl_crystal_density_diffrn 1.94
_citation_title

;
Crystallographic studies of the biuret reaction. I. Potassium bis-Biureto
cuprate(II) tetrahydrate, K2 Cu (N H C O N H C O N H)2 (H2 O)4
;
loop_
_citation_id
_citation_journal_full
_citation_year
_citation_journal_volume
_citation_page_first
_citation_page_last
_citation_journal_id_ASTM
primary 'Acta Crystallographica' 1961 14 407 418 ACCRA9
loop_
_citation_author_citation_id
_citation_author_name
primary 'Freeman, H.C.'
primary 'Smith, J.E.W.L.'
primary 'Taylor, J.C.'
_cell_length_a 3.843(4)
_cell_length_b 13.321(8)
_cell_length_c 13.916(8)
_cell_angle_alpha 90.
_cell_angle_beta 94.08(25)
_cell_angle_gamma 90.
_cell_volume 710.59
_cell_formula_units_Z 2
_space_group_name_H-M_alt 'P 1 21/n 1'
_space_group_IT_number 14
loop_
_space_group_symop_id
_space_group_symop_operation_xyz
1 '-x+1/2, y+1/2, -z+1/2'
2 '-x, -y, -z'
3 'x+1/2, -y+1/2, z+1/2'
4 'x, y, z'
loop_
_atom_type_symbol
_atom_type_oxidation_number
C4+ 4
N3- -3
O2- -2
K1+ 1
Cu2+ 2
H1+ 1
loop_
_atom_site_label
_atom_site_type_symbol
_atom_site_symmetry_multiplicity
_atom_site_Wyckoff_symbol
_atom_site_fract_x
_atom_site_fract_y
_atom_site_fract_z
_atom_site_B_iso_or_equiv
_atom_site_occupancy
C1 C4+ 4 e 0.3882(17) 0.1301(5) 0.1469(6) . 1.
C2 C4+ 4 e 0.0968(16) 0.2226(4) 0.0021(6) . 1.
N1 N3- 4 e 0.2800(16) 0.0396(4) 0.1146(5) . 1.
N2 N3- 4 e 0.3034(15) 0.2123(4) 0.0893(5) . 1.
N3 N3- 4 e -.0251(15) 0.1386(4) -.0408(5) . 1.
O1 O2- 4 e 0.5557(14) 0.1477(4) 0.2251(4) . 1.
O2 O2- 4 e 0.0491(14) 0.3125(4) -.0272(4) . 1.
O3 O2- 4 e 0.9379(19) 0.4469(4) 0.1160(5) . 1.
O4 O2- 4 e 0.8621(17) 0.3259(5) 0.2786(5) . 1.
K1 K1+ 4 e 0.5503(4) 0.4030(1) -.1387(1) . 1.
Cu1 Cu2+ 2 a 0 0 0 . 1.
H1 H1+ 4 e 0.32 -.01 0.17 2.4 1.
H2 H1+ 4 e 0.395 0.274 0.117 2.4 1.
H3 H1+ 4 e -.217 0.15 -.094 2.4 1.
H4 H1+ 4 e 0.978 0.4 0.066 2.4 1.
H5 H1+ 4 e 0.911 0.405 0.172 2.4 1.
H6 H1+ 4 e 0.752 0.263 0.259 2.4 1.
H7 H1+ 4 e 0.733 0.337 0.334 2.4 1.
#End of TTdata_15416-ICSD